WARNING: for repeatability, setting FPU to use double precision
============================[ Problem Statistics ]=============================
|                                                                             |
|  Number of variables:         14399                                         |
|  Number of clauses:          130677                                         |
|  Parse time:                   0.06 s                                       |
|  Simplification time:          0.00 s                                       |
|                                                                             |
===============================================================================
Solved by simplification
restarts              : 0
conflicts             : 0              (0 /sec)
decisions             : 0              (-nan % random) (0 /sec)
propagations          : 10164          (176046 /sec)
conflict literals     : 0              (-nan % deleted)
Memory used           : 29.00 MB
CPU time              : 0.057735 s

UNSATISFIABLE
WARNING: for repeatability, setting FPU to use double precision
============================[ Problem Statistics ]=============================
|                                                                             |
|  Number of variables:         14399                                         |
|  Number of clauses:          130677                                         |
|  Parse time:                   0.04 s                                       |
|  Simplification time:          0.00 s                                       |
|                                                                             |
===============================================================================
Solved by simplification
restarts              : 0
conflicts             : 0              (0 /sec)
decisions             : 0              (-nan % random) (0 /sec)
propagations          : 10164          (259537 /sec)
conflict literals     : 0              (-nan % deleted)
Memory used           : 28.00 MB
CPU time              : 0.039162 s

UNSATISFIABLE
